c description: Random 3-CNF over 10 variables and 45 clauses
c generator: CNFgen (0.9.0)
c copyright: (C) 2012-2020 Massimo Lauria <massimo.lauria@uniroma1.it>
c url: https://massimolauria.net/cnfgen
c command line: cnfgen randkcnf 3 10 45
c
p cnf 10 45
2 5 7 0
3 -5 -7 0
7 8 9 0
-4 -6 9 0
-1 -5 9 0
-2 -3 -8 0
-2 3 4 0
2 -5 -9 0
2 5 -10 0
-1 -4 7 0
-1 3 10 0
4 -7 -9 0
-3 4 -5 0
6 -9 10 0
-1 6 -7 0
2 -4 7 0
-1 -5 -7 0
6 7 -8 0
1 -2 4 0
1 2 7 0
-4 5 7 0
2 -5 9 0
-4 -9 -10 0
1 4 -9 0
-1 4 -8 0
-2 4 -5 0
-1 -9 10 0
-2 -4 5 0
1 4 -6 0
5 -7 -10 0
-1 -2 -8 0
-1 -8 -9 0
3 5 8 0
2 -5 8 0
-5 6 -9 0
5 -8 9 0
3 4 7 0
-4 8 -9 0
6 -7 8 0
-7 8 10 0
1 7 9 0
-3 5 -6 0
3 -5 -8 0
4 8 10 0
-1 -3 9 0
